Route #1: 1 70 54
Route #2: 93 75
Route #3: 40 67 88 44
Route #4: 87 37 6 49 14
Route #5: 52 91 50
Route #6: 63 77 3
Route #7: 25 65 78 42 28
Route #8: 39 10 18
Route #9: 27 97 19
Route #10: 76 55 16 69
Route #11: 30 85 11 79
Route #12: 92 9 86
Route #13: 82 60 59
Route #14: 74 13 4
Route #15: 38 47 26 48 96 64 34
Route #16: 71 62 99 98 89
Route #17: 20 41 22 15
Route #18: 66 84 90 68
Route #19: 100 61 23
Route #20: 31 46 35
Route #21: 8 17
Route #22: 21 56 94 80
Route #23: 7 2 45 43 29 36 72 57
Route #24: 83 51 81
Route #25: 24 95 73 53 33 32
Route #26: 5 12 58
Cost 27591.0000
Time 16.0001